\ Model Farming Ted-Dual
\ LP format - for model browsing. Use MPS format to capture full model detail.
Minimize
  500 x - 200 y1[1] - 200 y1[2] - 200 y1[3] - 240 y2[1] - 240 y2[2]
   - 240 y2[3] + 6000 y4[1] + 6000 y4[2] + 6000 y4[3] + 1e+06 la[0]
   + 1e+06 la[1] + 1e+06 la[2] + 1e+06 a1[1] + 1e+06 a1[2] + 1e+06 a1[3]
   + 1e+06 a2[1] + 1e+06 a2[2] + 1e+06 a2[3] + 1e+06 a3[1] + 1e+06 a3[2]
   + 1e+06 a3[3] + 1e+06 a4[1] + 1e+06 a4[2] + 1e+06 a4[3] + 1e+06 a5[1]
   + 1e+06 a5[2] + 1e+06 a5[3] + 1e+06 a6[1] + 1e+06 a6[2] + 1e+06 a6[3]
Subject To
 linkingconstraints: - x + 3 y1[1] + 2.5 y1[2] + 2 y1[3] + l[0] + la[0]
   = 150
 linkingconstraints: - x + 3.6 y2[1] + 3 y2[2] + 2.4 y2[3] + l[1] + la[1]
   = 230
 linkingconstraints: - x + 24 y3[1] + 20 y3[2] + 16 y3[3] + l[2] + la[2]
   = 260
 sub1: y1[1] + s1[1] + a1[1] = 79.33333333333333
 sub2: y1[1] - s2[1] + a2[1] = 56.66666666666666
 sub3: y2[1] + s3[1] + a3[1] = 70
 sub4: y2[1] - s4[1] + a4[1] = 50
 sub5: y3[1] + y4[1] - s5[1] + a5[1] = 12
 sub6: y3[1] - s6[1] + a6[1] = 3.333333333333334
 sub1: y1[2] + s1[2] + a1[2] = 79.33333333333333
 sub2: y1[2] - s2[2] + a2[2] = 56.66666666666666
 sub3: y2[2] + s3[2] + a3[2] = 70
 sub4: y2[2] - s4[2] + a4[2] = 50
 sub5: y3[2] + y4[2] - s5[2] + a5[2] = 12
 sub6: y3[2] - s6[2] + a6[2] = 3.333333333333334
 sub1: y1[3] + s1[3] + a1[3] = 79.33333333333333
 sub2: y1[3] - s2[3] + a2[3] = 56.66666666666666
 sub3: y2[3] + s3[3] + a3[3] = 70
 sub4: y2[3] - s4[3] + a4[3] = 50
 sub5: y3[3] + y4[3] - s5[3] + a5[3] = 12
 sub6: y3[3] - s6[3] + a6[3] = 3.333333333333334
Bounds
End
